This is Ipopt version 3.12.3, running with linear solver mumps.
NOTE: Other linear solvers might be more efficient (see Ipopt documentation).

Number of nonzeros in equality constraint Jacobian...:   293798
Number of nonzeros in inequality constraint Jacobian.:    86280
Number of nonzeros in Lagrangian Hessian.............:    55664

Total number of variables............................:    61856
                     variables with only lower bounds:        0
                variables with lower and upper bounds:        0
                     variables with only upper bounds:        0
Total number of equality constraints.................:    55664
Total number of inequality constraints...............:    74068
        inequality constraints with only lower bounds:     6106
   inequality constraints with lower and upper bounds:    61856
        inequality constraints with only upper bounds:     6106

iter    objective    inf_pr   inf_du lg(mu)  ||d||  lg(rg) alpha_du alpha_pr  ls
   0 8.5999714e-001 5.98e-001 1.68e+000  -1.0 0.00e+000    -  0.00e+000 0.00e+000   0
   1 1.6786808e+001 1.19e+001 7.17e+001  -1.0 1.13e+001    -  9.13e-002 8.57e-001f  1
   2 1.8844156e+001 5.18e+000 6.61e+001  -1.0 1.15e+000   0.0 8.69e-001 5.76e-001f  1
   3 2.0087614e+001 6.69e-001 6.42e+001  -1.0 1.06e+000  -0.5 8.69e-001 1.00e+000f  1
   4 1.9963081e+001 7.12e-002 5.75e+000  -1.0 2.16e-001   0.9 1.00e+000 1.00e+000f  1
   5 2.0003562e+001 4.09e-002 3.42e+000  -1.0 1.82e-001   0.4 1.00e+000 1.00e+000f  1
   6 2.0227080e+001 6.94e-002 2.54e+000  -1.0 3.12e-001  -0.1 1.00e+000 1.00e+000f  1
   7 2.0341985e+001 1.53e-002 5.15e-001  -1.0 1.14e-001   0.3 1.00e+000 1.00e+000f  1
   8 2.0181237e+001 8.83e-002 1.10e+000  -1.7 1.61e-001  -0.2 1.00e+000 1.00e+000f  1
   9 2.0127325e+001 4.36e-002 3.96e+000  -1.7 1.04e-001   0.3 1.00e+000 1.00e+000f  1
iter    objective    inf_pr   inf_du lg(mu)  ||d||  lg(rg) alpha_du alpha_pr  ls
  10 2.0051825e+001 2.28e-002 4.45e-001  -1.7 1.56e-001  -0.2 1.00e+000 1.00e+000f  1
  11 1.9870029e+001 5.23e-002 3.75e-001  -1.7 3.85e-001  -0.7 1.00e+000 1.00e+000f  1
  12 1.9817916e+001 6.29e-003 9.11e-002  -1.7 1.33e-001  -0.3 1.00e+000 1.00e+000f  1
  13 1.9219551e+001 5.60e-002 1.34e-001  -2.5 4.00e-001  -0.7 1.00e+000 1.00e+000f  1
  14 1.7770568e+001 2.61e-001 1.04e+000  -2.5 8.87e-001  -1.2 1.00e+000 1.00e+000f  1
  15 1.7278840e+001 1.63e-001 8.85e-001  -2.5 3.63e-001  -0.8 1.00e+000 1.00e+000f  1
  16 1.6113006e+001 6.91e-002 1.62e-001  -2.5 5.78e-001  -1.3 1.00e+000 9.83e-001f  1
  17 1.5740771e+001 1.03e-002 5.44e-002  -2.5 3.25e-001  -0.8 1.00e+000 1.00e+000f  1
  18 1.4719168e+001 8.71e-003 1.95e-002  -2.5 4.01e-001  -1.3 1.00e+000 1.00e+000f  1
  19 1.2318536e+001 3.75e-002 5.15e-002  -3.8 1.18e+000  -1.8 8.40e-001 8.47e-001f  1
iter    objective    inf_pr   inf_du lg(mu)  ||d||  lg(rg) alpha_du alpha_pr  ls
  20 1.1572339e+001 1.23e-002 5.62e-002  -3.8 4.72e-001  -1.4 1.00e+000 7.70e-001f  1
  21 1.1228128e+001 1.04e-003 2.33e-002  -3.8 1.95e-001  -0.9 1.00e+000 1.00e+000f  1
  22 1.0600800e+001 6.41e-003 2.15e-002  -3.8 5.46e-001  -1.4 1.00e+000 6.91e-001f  1
  23 9.8503616e+000 1.82e-002 2.08e-001  -3.8 1.55e+000  -1.9 1.00e+000 3.55e-001f  1
  24 9.3016280e+000 6.27e-003 3.56e-002  -3.8 5.94e-001  -1.5 1.00e+000 6.98e-001f  1
  25 8.4583310e+000 7.80e-003 1.40e-001  -3.8 1.65e+000  -1.9 1.00e+000 4.71e-001f  1
  26 8.1485501e+000 4.76e-003 3.34e-002  -3.8 6.26e-001  -1.5 1.00e+000 4.83e-001f  1
  27 7.5281964e+000 4.67e-003 1.38e-001  -3.8 1.69e+000  -2.0 1.00e+000 4.14e-001f  1
  28 7.0324140e+000 1.94e-003 5.10e-002  -3.8 6.58e-001  -1.6 1.00e+000 9.29e-001f  1
  29 6.3410421e+000 1.25e-002 1.85e-001  -3.8 1.64e+000  -2.0 7.17e-001 5.87e-001f  1
iter    objective    inf_pr   inf_du lg(mu)  ||d||  lg(rg) alpha_du alpha_pr  ls
  30 5.9351430e+000 2.89e-002 4.20e-002  -3.8 6.11e-001  -1.6 1.00e+000 1.00e+000f  1
  31 5.7946847e+000 1.69e-003 1.46e-002  -3.8 2.28e-001  -1.2 1.00e+000 1.00e+000h  1
  32 5.4240311e+000 2.45e-002 1.41e-002  -3.8 6.62e-001  -1.7 1.00e+000 1.00e+000f  1
  33 5.2956658e+000 3.08e-003 1.39e-002  -3.8 2.44e-001  -1.2 1.00e+000 1.00e+000h  1
  34 4.9554838e+000 1.65e-003 1.32e-002  -3.8 6.93e-001  -1.7 1.00e+000 1.00e+000f  1
  35 4.8371145e+000 2.39e-004 1.29e-002  -3.8 2.54e-001  -1.3 1.00e+000 1.00e+000h  1
  36 4.5225821e+000 1.84e-003 1.21e-002  -3.8 7.18e-001  -1.8 1.00e+000 1.00e+000f  1
  37 4.1243015e+000 7.11e-003 2.58e-002  -3.8 1.80e+000  -2.2 1.00e+000 5.54e-001f  1
  38 4.0957232e+000 1.38e-003 6.70e-002  -3.8 2.18e-001  -0.9 1.00e+000 9.08e-001f  1
  39 3.9981548e+000 1.64e-003 1.39e-002  -3.8 2.33e-001  -1.4 1.00e+000 1.00e+000f  1
iter    objective    inf_pr   inf_du lg(mu)  ||d||  lg(rg) alpha_du alpha_pr  ls
  40 3.7389775e+000 7.85e-003 8.30e-003  -3.8 6.22e-001  -1.9 1.00e+000 1.00e+000f  1
  41 3.1796989e+000 1.00e-002 2.60e-002  -3.8 1.64e+000  -2.4 1.00e+000 1.00e+000f  1
  42 3.0096496e+000 1.35e-003 1.14e-002  -3.8 5.76e-001  -1.9 1.00e+000 1.00e+000h  1
  43 2.6345810e+000 7.26e-003 1.97e-002  -3.8 1.38e+000  -2.4 1.00e+000 1.00e+000f  1
  44 2.1369412e+000 3.21e-001 5.31e-002  -3.8 2.41e+000  -2.9 6.39e-001 8.69e-001f  1
  45 1.9923107e+000 5.40e-001 8.83e-002  -3.8 1.07e+000  -2.5 1.00e+000 1.00e+000f  1
  46 1.7497439e+000 2.34e-002 2.06e-002  -3.8 1.65e+000  -2.9 1.00e+000 1.00e+000h  1
  47 1.6891687e+000 2.19e-003 2.85e-003  -3.8 5.60e-001  -2.5 1.00e+000 1.00e+000h  1
  48 1.5827575e+000 1.40e-002 8.29e-003  -3.8 1.31e+000  -3.0 1.00e+000 1.00e+000f  1
  49 1.5558924e+000 1.85e-003 1.37e-003  -3.8 4.50e-001  -2.6 1.00e+000 1.00e+000h  1
iter    objective    inf_pr   inf_du lg(mu)  ||d||  lg(rg) alpha_du alpha_pr  ls
  50 1.5061599e+000 8.51e-004 3.27e-003  -5.7 1.55e-001  -2.1 9.70e-001 9.48e-001h  1
  51 1.4410532e+000 4.18e-003 1.58e-003  -5.7 4.09e-001  -2.6 9.20e-001 7.74e-001h  1
  52 1.3908681e+000 6.54e-003 3.49e-003  -5.7 9.28e-001  -3.1 1.00e+000 4.30e-001h  1
  53 1.3738656e+000 4.27e-003 2.19e-003  -5.7 3.71e-001  -2.7 1.00e+000 4.00e-001h  1
  54 1.3474870e+000 3.31e-003 3.40e-003  -5.7 8.70e-001  -3.1 8.98e-001 3.31e-001h  1
  55 1.3223750e+000 7.83e-003 3.87e-003  -5.7 1.54e+000  -3.6 3.69e-001 2.01e-001h  1
  56 1.3092005e+000 6.05e-003 3.91e-003  -5.7 7.74e-001  -3.2 1.00e+000 2.35e-001h  1
  57 1.2885168e+000 4.87e-003 4.51e-003  -5.7 1.79e+000  -3.7 5.01e-001 2.16e-001h  1
  58 1.2704707e+000 3.80e-002 6.15e-003  -5.7 8.23e-001  -3.2 1.00e+000 4.41e-001h  1
  59 1.2434745e+000 2.50e-002 3.97e-003  -5.7 1.14e+000  -3.7 9.61e-001 4.10e-001h  1
iter    objective    inf_pr   inf_du lg(mu)  ||d||  lg(rg) alpha_du alpha_pr  ls
  60 1.2332869e+000 1.56e-002 1.82e-003  -5.7 5.10e-001  -3.3 1.00e+000 4.27e-001h  1
  61 1.2127597e+000 9.53e-003 2.64e-003  -5.7 9.83e-001  -3.8 1.00e+000 4.53e-001h  1
  62 1.1965699e+000 9.38e-003 2.30e-003  -5.7 2.14e+000  -4.2 2.60e-001 1.90e-001h  1
  63 1.1830905e+000 5.94e-003 1.32e-003  -5.7 8.34e-001  -3.8 2.75e-001 3.86e-001h  1
  64 1.1629404e+000 5.70e-003 1.10e-003  -5.7 2.32e+000  -4.3 3.26e-001 2.62e-001h  1
  65 1.1396357e+000 1.23e-002 1.38e-003  -5.7 5.76e+000  -4.8 3.84e-001 1.42e-001h  1
  66 1.1224708e+000 1.31e-002 2.15e-003  -5.7 2.42e+000  -4.3 1.00e+000 2.53e-001h  1
  67 1.0881209e+000 3.25e-002 2.49e-003  -5.7 5.83e+000  -4.8 5.24e-001 2.44e-001h  1
  68 1.0706708e+000 2.82e-002 2.86e-003  -5.7 2.39e+000  -4.4 1.00e+000 3.15e-001h  1
  69 1.0576814e+000 1.41e-002 8.88e-004  -5.7 9.23e-001  -4.0 1.00e+000 6.19e-001h  1
iter    objective    inf_pr   inf_du lg(mu)  ||d||  lg(rg) alpha_du alpha_pr  ls
  70 1.0432538e+000 1.48e-002 2.89e-003  -5.7 2.24e+000  -4.4 1.00e+000 3.00e-001h  1
  71 1.0209177e+000 2.37e-002 1.79e-003  -5.7 4.13e+000  -4.9 1.00e+000 2.49e-001h  1
  72 1.0008267e+000 3.42e-002 1.47e-003  -5.7 6.10e+000  -5.4 2.58e-001 1.74e-001h  1
  73 9.8874419e-001 3.61e-002 5.40e-003  -5.7 3.10e+000  -5.0 1.00e+000 2.16e-001h  1
  74 9.7051220e-001 6.40e-002 4.79e-003  -5.7 6.55e+000  -5.5 6.87e-002 2.61e-001h  1
  75 9.6607643e-001 3.20e-002 1.25e-003  -5.7 4.85e-001  -4.1 1.00e+000 5.15e-001h  1
  76 9.5776626e-001 2.11e-002 1.01e-003  -5.7 1.11e+000  -4.6 8.04e-001 5.00e-001f  1
  77 9.4805732e-001 2.06e-002 1.21e-003  -5.7 2.26e+000  -5.1 1.00e+000 4.23e-001h  1
  78 9.4024885e-001 6.71e-003 1.39e-003  -5.7 8.47e-001  -4.7 1.00e+000 9.53e-001h  1
  79 9.3657455e-001 7.39e-003 1.07e-003  -5.7 1.64e+000  -5.1 1.00e+000 3.97e-001f  1
iter    objective    inf_pr   inf_du lg(mu)  ||d||  lg(rg) alpha_du alpha_pr  ls
  80 9.3303011e-001 3.37e-003 2.75e-004  -5.7 6.58e-001  -4.7 1.00e+000 1.00e+000f  1
  81 9.3121405e-001 3.82e-003 3.70e-004  -5.7 1.49e+000  -5.2 1.00e+000 4.29e-001h  1
  82 9.2956476e-001 1.77e-003 1.20e-005  -5.7 5.57e-001  -4.8 1.00e+000 1.00e+000f  1
  83 9.2799125e-001 3.93e-003 1.05e-004  -5.7 1.05e+000  -5.2 1.00e+000 8.01e-001h  1
  84 9.2745388e-001 6.41e-004 2.29e-005  -5.7 3.64e-001  -4.8 1.00e+000 1.00e+000f  1
  85 9.2677244e-001 2.28e-003 3.18e-005  -5.7 7.70e-001  -5.3 1.00e+000 1.00e+000h  1
  86 9.2660912e-001 2.74e-004 5.08e-006  -5.7 2.86e-001  -4.9 1.00e+000 1.00e+000h  1
  87 9.2637582e-001 3.50e-003 2.24e-004  -5.7 8.39e-001  -5.3 1.00e+000 1.00e+000h  1
  88 9.2629230e-001 5.80e-004 2.98e-005  -5.7 3.28e-001  -4.9 1.00e+000 1.00e+000h  1
  89 9.2624617e-001 1.33e-003 9.51e-005  -5.7 1.74e+000  -5.4 1.00e+000 2.50e-001h  1
iter    objective    inf_pr   inf_du lg(mu)  ||d||  lg(rg) alpha_du alpha_pr  ls
  90 9.2617531e-001 5.47e-003 3.04e-004  -5.7 5.70e-001  -5.0 1.00e+000 1.00e+000f  1
  91 9.2608475e-001 3.09e-003 1.26e-004  -5.7 1.41e+000  -5.4 1.00e+000 5.88e-001h  1
  92 9.2602360e-001 4.46e-003 9.40e-005  -5.7 3.96e+000  -5.9 1.00e+000 2.62e-001f  1
  93 9.2594301e-001 1.94e-003 6.03e-005  -5.7 9.43e-001  -5.5 1.00e+000 1.00e+000f  1
  94 9.2585933e-001 9.30e-002 3.48e-003  -5.7 3.42e+001  -6.0 1.97e-001 1.48e-001h  1
  95 9.2576055e-001 6.13e-002 2.24e-003  -5.7 2.39e+000  -5.5 1.00e+000 3.47e-001h  1
  96 9.2567675e-001 5.29e-002 1.95e-003  -5.7 8.81e+000  -6.0 1.00e+000 1.41e-001h  1
  97 9.2547402e-001 9.16e-003 1.96e-004  -5.7 1.77e+000  -5.6 1.00e+000 9.92e-001h  1
  98 9.2544928e-001 2.83e-002 4.89e-004  -5.7 2.83e+001  -6.1 1.04e-001 7.46e-002h  1
  99 9.2538419e-001 1.42e-002 2.31e-004  -5.7 1.55e+000  -5.6 1.00e+000 5.12e-001f  1
iter    objective    inf_pr   inf_du lg(mu)  ||d||  lg(rg) alpha_du alpha_pr  ls
 100 9.2528305e-001 2.77e-002 2.55e-004  -5.7 4.52e+000  -6.1 1.00e+000 5.23e-001f  1
 101 9.2524486e-001 3.53e-002 3.05e-004  -5.7 3.52e+000  -5.7 1.00e+000 3.25e-001h  1
 102 9.2513798e-001 6.59e-002 1.15e-003  -5.7 3.55e+000  -6.2 1.00e+000 7.66e-001f  1
 103 9.2510846e-001 6.20e-002 1.08e-003  -5.7 3.36e+001  -6.6 2.05e-001 5.95e-002h  1
 104 9.2500170e-001 1.20e-002 1.69e-004  -5.7 1.96e+000  -6.2 1.00e+000 8.45e-001h  1
 105 9.2495450e-001 1.79e-002 9.51e-005  -5.7 3.92e+000  -6.7 1.00e+000 6.16e-001f  1
 106 9.2490589e-001 3.33e-003 1.21e-005  -5.7 1.11e+000  -6.3 1.00e+000 1.00e+000f  1
 107 9.2489121e-001 4.73e-004 2.69e-006  -5.7 4.09e-001  -5.8 1.00e+000 1.00e+000h  1
 108 9.2486507e-001 5.27e-003 1.73e-005  -5.7 1.33e+000  -6.3 1.00e+000 1.00e+000h  1
 109 9.2484730e-001 5.72e-004 3.35e-006  -5.7 4.03e-001  -5.9 1.00e+000 1.00e+000h  1
iter    objective    inf_pr   inf_du lg(mu)  ||d||  lg(rg) alpha_du alpha_pr  ls
 110 9.2481906e-001 4.17e-003 3.13e-005  -5.7 1.23e+000  -6.4 1.00e+000 1.00e+000h  1
 111 9.2481373e-001 8.30e-003 6.32e-005  -5.7 2.30e+001  -6.9 1.14e-001 5.00e-002h  2
 112 9.2479814e-001 2.55e-002 2.61e-004  -5.7 5.89e+000  -6.4 1.00e+000 4.36e-001h  2
 113 9.2475979e-001 2.83e-003 6.52e-005  -5.7 1.39e+000  -6.0 1.00e+000 1.00e+000h  1
 114 9.2474525e-001 3.99e-003 5.22e-005  -5.7 2.96e+000  -6.5 1.00e+000 3.05e-001h  2
 115 9.2472764e-001 1.41e-003 1.04e-005  -5.7 7.28e-001  -6.1 1.00e+000 1.00e+000h  1
 116 9.2470189e-001 6.97e-003 5.33e-005  -5.7 1.72e+000  -6.5 1.00e+000 1.00e+000h  1
 117 9.2468084e-001 1.60e-003 1.12e-005  -5.7 7.39e-001  -6.1 1.00e+000 1.00e+000h  1
 118 9.2464393e-001 7.01e-004 6.34e-005  -5.7 2.21e+000  -6.6 1.00e+000 9.57e-001H  1
 119 9.2463720e-001 3.16e-003 4.71e-005  -5.7 4.28e+000    -  7.62e-001 2.59e-001f  2
iter    objective    inf_pr   inf_du lg(mu)  ||d||  lg(rg) alpha_du alpha_pr  ls
 120 9.2463512e-001 5.04e-003 2.71e-005  -5.7 1.60e+000  -7.1 1.00e+000 1.00e+000h  1
 121 9.2463015e-001 6.64e-005 3.58e-005  -5.7 1.76e+000    -  1.00e+000 1.00e+000H  1
 122 9.2462904e-001 3.69e-003 1.75e-004  -5.7 4.20e+000    -  1.00e+000 1.00e+000H  1
 123 9.2463186e-001 2.91e-004 2.06e-005  -5.7 1.44e+000    -  1.00e+000 1.00e+000H  1
 124 9.2463248e-001 2.40e-004 1.28e-006  -5.7 3.20e-001    -  1.00e+000 1.00e+000h  1
 125 9.2463238e-001 5.37e-006 2.86e-008  -5.7 5.03e-002    -  1.00e+000 1.00e+000h  1
 126 9.1343244e-001 1.27e-002 5.75e-004  -7.0 3.16e+000    -  4.90e-001 5.19e-001f  1
 127 9.0924179e-001 8.20e-003 5.25e-004  -7.0 1.77e+000  -6.6 4.07e-001 3.99e-001h  1
 128 9.0831689e-001 6.84e-003 5.51e-004  -7.0 1.16e+000  -5.3 5.10e-001 1.65e-001h  1
 129 9.0825151e-001 6.73e-003 1.47e-003  -7.0 3.26e-001  -4.9 9.95e-001 1.55e-002h  1
iter    objective    inf_pr   inf_du lg(mu)  ||d||  lg(rg) alpha_du alpha_pr  ls
 130 9.0683832e-001 4.93e-003 1.37e-003  -7.0 8.45e-001  -5.4 8.51e-001 2.65e-001f  1
 131 9.0468038e-001 5.58e-003 8.39e-004  -7.0 1.05e+000  -5.8 1.00e+000 5.13e-001f  1
 132 9.0425284e-001 4.47e-003 8.69e-004  -7.0 1.12e+000  -6.3 1.00e+000 2.23e-001h  1
 133 9.0314224e-001 1.96e-003 1.26e-004  -7.0 4.44e-001  -5.9 1.00e+000 8.75e-001h  1
 134 9.0307624e-001 1.39e-003 2.72e-004  -7.0 1.25e+000  -6.4 1.00e+000 2.99e-001f  1
 135 9.0303247e-001 1.00e-003 2.05e-004  -7.0 9.43e-001  -5.9 1.00e+000 3.19e-001h  1
 136 9.0292674e-001 2.12e-003 9.64e-005  -7.0 1.13e+000  -6.4 1.00e+000 1.00e+000f  1
 137 9.0291455e-001 3.10e-004 1.87e-005  -7.0 1.71e-001  -5.1 1.00e+000 1.00e+000h  1
 138 9.0291213e-001 1.06e-004 4.39e-006  -7.0 9.32e-002  -4.7 1.00e+000 1.00e+000h  1
 139 9.0290914e-001 1.35e-003 7.40e-005  -7.0 1.26e+000  -5.1 4.27e-001 3.23e-001h  1
iter    objective    inf_pr   inf_du lg(mu)  ||d||  lg(rg) alpha_du alpha_pr  ls
 140 9.0290212e-001 5.21e-004 1.33e-005  -7.0 1.80e-001  -4.7 1.00e+000 1.00e+000f  1
 141 9.0288870e-001 6.36e-003 6.47e-005  -7.0 1.04e+000  -5.2 1.00e+000 1.00e+000h  1
 142 9.0285371e-001 5.56e-002 2.80e-004  -7.0 1.08e+001  -5.7 3.12e-001 3.35e-001h  1
 143 9.0277743e-001 1.64e-002 3.83e-005  -7.0 1.49e+000  -5.2 1.00e+000 7.77e-001f  1
 144 9.0273216e-001 4.93e-003 6.36e-005  -7.0 1.78e+000  -5.7 1.00e+000 7.31e-001f  1
 145 9.0270249e-001 3.82e-003 7.50e-005  -7.0 6.66e+000  -6.2 7.30e-001 2.35e-001f  1
 146 9.0266778e-001 1.73e-003 1.09e-004  -7.0 1.78e+000  -5.8 1.00e+000 8.55e-001f  1
 147 9.0265206e-001 1.55e-003 8.65e-005  -7.0 3.79e+000  -6.2 1.00e+000 2.08e-001f  1
 148 9.0264418e-001 1.64e-003 9.56e-005  -7.0 3.12e+000  -6.7 2.13e-001 1.34e-001f  1
 149 9.0263598e-001 1.22e-003 6.05e-005  -7.0 1.15e+000  -6.3 1.00e+000 3.93e-001f  1
iter    objective    inf_pr   inf_du lg(mu)  ||d||  lg(rg) alpha_du alpha_pr  ls
 150 9.0262723e-001 1.12e-002 2.86e-005  -7.0 2.11e+000  -6.8 1.00e+000 5.43e-001f  1
 151 9.0261888e-001 1.14e-003 6.32e-006  -7.0 4.66e-001  -6.3 1.00e+000 1.00e+000f  1
 152 9.0261769e-001 4.21e-003 2.68e-005  -7.0 4.52e+000  -6.8 5.89e-001 2.00e-001h  3
 153 9.0261371e-001 7.88e-003 7.51e-005  -7.0 1.49e+000  -6.4 1.00e+000 1.00e+000h  1
 154 9.0260782e-001 5.96e-003 4.59e-005  -7.0 9.11e-001  -6.0 1.00e+000 1.00e+000h  1
 155 9.0260355e-001 2.20e-003 1.26e-005  -7.0 4.12e-001  -5.5 1.00e+000 1.00e+000h  1
 156 9.0259688e-001 2.94e-002 1.82e-004  -7.0 5.77e+000  -6.0 3.67e-001 2.45e-001h  1
 157 9.0259393e-001 2.43e-002 1.50e-004  -7.0 8.88e-001  -6.5 1.00e+000 1.78e-001f  1
 158 9.0258436e-001 1.81e-002 7.20e-005  -7.0 2.01e+000  -7.0 2.74e-001 5.98e-001f  1
 159 9.0257373e-001 3.62e-003 1.89e-005  -7.0 6.15e-001  -6.5 1.00e+000 9.44e-001f  1
iter    objective    inf_pr   inf_du lg(mu)  ||d||  lg(rg) alpha_du alpha_pr  ls
 160 9.0257203e-001 2.04e-003 2.66e-005  -7.0 1.82e+000  -7.0 1.00e+000 4.47e-001f  1
 161 9.0256843e-001 3.55e-003 1.26e-004  -7.0 3.49e+000  -7.5 1.00e+000 6.93e-001F  1
 162 9.0256658e-001 1.84e-003 2.46e-004  -7.0 8.53e+000    -  1.00e+000 9.03e-001F  1
 163 9.0256619e-001 3.77e-003 3.37e-005  -7.0 1.27e+000    -  1.00e+000 1.00e+000f  1
 164 9.0256436e-001 1.37e-004 2.52e-006  -7.0 2.75e-001    -  1.00e+000 1.00e+000h  1
 165 9.0256425e-001 1.38e-005 1.55e-007  -7.0 8.75e-002    -  1.00e+000 1.00e+000h  1
 166 9.0256424e-001 2.97e-009 7.14e-011  -7.0 1.10e-003    -  1.00e+000 1.00e+000h  1

Number of Iterations....: 166

                                   (scaled)                 (unscaled)
Objective...............:  9.0256424206624675e-001   9.0256424206624675e-001
Dual infeasibility......:  7.1404936742449491e-011   7.1404936742449491e-011
Constraint violation....:  2.3938481752416862e-010   2.9749358532171755e-009
Complementarity.........:  9.0911011156964562e-008   9.0911011156964562e-008
Overall NLP error.......:  9.0911011156964562e-008   9.0911011156964562e-008


Number of objective function evaluations             = 191
Number of objective gradient evaluations             = 167
Number of equality constraint evaluations            = 191
Number of inequality constraint evaluations          = 191
Number of equality constraint Jacobian evaluations   = 167
Number of inequality constraint Jacobian evaluations = 167
Number of Lagrangian Hessian evaluations             = 166
Total CPU secs in IPOPT (w/o function evaluations)   =    108.547
Total CPU secs in NLP function evaluations           =     11.845

EXIT: Optimal Solution Found.
               t_proc [s]   t_wall [s]    n_eval
       nlp_f        0.218        0.219       191
       nlp_g        0.795        0.797       191
  nlp_grad_f        0.391        0.391       168
  nlp_hess_l         4.29          4.3       166
   nlp_jac_g         5.94         5.94       168
      solver          120          120         1
